data/benchmarks/bayes/90-16-10-q.cnf
p cnf 1216 1057
c weights 0.994879 0.005121000000000042 1 1 1 1 1 1 1 1 1 1 1 1 1 1 1 1 1 1 1 1 1 1 1 1 1 1 1 1 1 1 1 1 1 1 1 1 1 1 1 1 1 1 1 1 1 1 1 1 1 1 1 1 1 1 1 1 1 1 1 1 1 1 1 1 1 1 1 1 1 1 1 1 1 1 1 1 1 1 1 1 1 1 1 1 1 1 1 1 1 1 1 1 1 1 1 1 1 1 1 1 1 1 1 1 1 1 1 1 1 1 1 1 1 1 1 1 1 1 1 1 1 1 1 1 1 1 1 1 1 1 1 1 1 1 1 1 1 1 1 1 1 1 1 1 1 1 1 1 1 1 1 1 1 1 1 1 1 1 1 1 1 1 1 1 1 1 1 1 1 1 1 1 1 1 1 1 1 1 1 1 1 1 1 1 1 1 1 1 1 1 1 1 1 1 1 1 1 1 1 1 1 1 1 1 1 1 1 1 1 1 1 1 1 1 1 1 1 1 1 1 1 1 1 1 1 1 1 1 1 1 1 1 1 1 1 1 1 1 1 1 1 1 1 1 1 1 1 1 1 1 1 1 1 1 1 1 1 1 1 1 1 1 1 1 1 1 1 1 1 1 1 1 1 1 1 1 1 1 1 1 1 1 1 1 1 1 1 1 1 1 1 1 1 1 1 1 1 1 1 1 1 1 1 1 1 1 1 1 1 1 1 1 1 1 1 1 1 1 1 1 1 1 1 1 1 1 1 1 1 1 1 1 1 1 1 1 1 1 1 1 1 1 1 1 1 1 1 1 1 1 1 1 1 1 1 1 1 1 1 1 1 1 1 1 1 1 1 1 1 1 1 1 1 1 1 1 1 1 1 1 1 1 1 1 1 1 1 1 1 1 1 1 1 1 1 1 1 1 1 1 1 1 1 1 1 1 1 1 1 1 1 1 1 1 1 1 1 1 1 1 1 1 1 1 1 1 1 1 1 1 1 1 1 1 1 1 1 1 1 1 1 1 1 1 1 1 1 1 1 1 1 1 1 1 1 1 1 1 1 1 1 1 1 1 1 1 1 1 1 1 1 1 1 1 1 1 1 1 1 1 1 1 1 1 1 1 1 1 1 1 1 1 1 1 1 1 1 1 1 1 1 1 1 1 1 1 1 1 1 1 0.5 0.5 0.5 0.5 0.5 0.5 0.5 0.5 0.5 0.5 0.5 0.5 0.5 0.5 0.5 0.5 0.5 0.5 0.5 0.5 0.5 0.5 0.5 0.5 0.5 0.5 0.5 0.5 0.5 0.5 0.5 0.5 0.5 0.5 0.5 0.5 0.5 0.5 0.5 0.5 0.5 0.5 0.5 0.5 0.5 0.5 0.5 0.5 0.895061 0.104939 0.40683 0.59317 0.5 0.5 0.5 0.5 0.5 0.5 0.5 0.5 0.5 0.5 0.5 0.5 0.5 0.5 0.5 0.5 0.5 0.5 0.5 0.5 0.5 0.5 0.5 0.5 0.5 0.5 0.5 0.5 0.5 0.5 0.5 0.5 0.5 0.5 0.5 0.5 0.5 0.5 0.5 0.5 0.5 0.5 0.5 0.5 0.5 0.5 0.5 0.5 0.5 0.5 0.5 0.5 0.5 0.5 0.5 0.5 0.5 0.5 0.5 0.5 0.5 0.5 0.5 0.5 0.5 0.5 0.5 0.5 0.5 0.5 0.5 0.5 0.5 0.5 0.5 0.5 0.5 0.5 0.5 0.5 0.5 0.5 0.5 0.5 0.829042 0.17095800000000005 0.572154 0.42784599999999995 0.34905 0.6509499999999999 0.954082 0.045918000000000014 0.5 0.5 0.5 0.5 0.5 0.5 0.5 0.5 0.5 0.5 0.5 0.5 0.5 0.5 0.5 0.5 0.5 0.5 0.5 0.5 0.5 0.5 0.5 0.5 0.5 0.5 0.5 0.5 0.5 0.5 0.5 0.5 0.5 0.5 0.5 0.5 0.5 0.5 0.5 0.5 0.2178 0.7822 0.101016 0.898984 0.5 0.5 0.5 0.5 0.5 0.5 0.5 0.5 0.5 0.5 0.5 0.5 0.5 0.5 0.5 0.5 0.5 0.5 0.5 0.5 0.5 0.5 0.5 0.5 0.5 0.5 0.5 0.5 0.5 0.5 0.5 0.5 0.5 0.5 0.5 0.5 0.5 0.5 0.5 0.5 0.00257621 0.99742379 0.970255 0.02974500000000002 0.200295 0.799705 0.103592 0.896408 0.5 0.5 0.5 0.5 0.5 0.5 0.5 0.5 0.5 0.5 0.5 0.5 0.5 0.5 0.5 0.5 0.5 0.5 0.5 0.5 0.5 0.5 0.5 0.5 0.5 0.5 0.5 0.5 0.5 0.5 0.5 0.5 0.5 0.5 0.5 0.5 0.5 0.5 0.5 0.5 0.5 0.5 0.5 0.5 0.5 0.5 0.5 0.5 0.5 0.5 0.5 0.5 0.5 0.5 0.5 0.5 0.5 0.5 0.5 0.5 0.5 0.5 0.5 0.5 0.5 0.5 0.5 0.5 0.5 0.5 0.5 0.5 0.5 0.5 0.5 0.5 0.5 0.5 0.5 0.5 0.5 0.5 0.5 0.5 0.5 0.5 0.5 0.5 0.5 0.5 0.5 0.5 0.5 0.5 0.5 0.5 0.5 0.5 0.5 0.5 0.5 0.5 0.5 0.5 0.5 0.5 0.5 0.5 0.5 0.5 0.5 0.5 0.5 0.5 0.5 0.5 0.5 0.5 0.5 0.5 0.5 0.5 0.5 0.5 0.5 0.5 0.5 0.5 0.5 0.5 0.5 0.5 0.5 0.5 0.5 0.5 0.5 0.5 0.5 0.5 0.5 0.5 0.5 0.5 0.5 0.5 0.5 0.5 0.5 0.5 0.5 0.5 0.5 0.5 0.5 0.5 0.5 0.5 0.5 0.5 0.5 0.5 0.5 0.5 0.5 0.5 0.5 0.5 0.5 0.5 0.5 0.5 0.5 0.5 0.5 0.5 0.5 0.5 0.5 0.5 0.5 0.5 0.5 0.5 0.5 0.5 0.5 0.5 0.5 0.5 0.5 0.5 0.5 0.5 0.5 0.5 0.5 0.5 0.5 0.5 0.5 0.5 0.5 0.5 0.5 0.5 0.5 0.5 0.5 0.5 0.5 0.5 0.5 0.5 0.5 0.5 0.948104 0.05189600000000005 0.544927 0.45507299999999995 0.339155 0.660845 0.354233 0.645767 0.343177 0.6568229999999999 0.0754184 0.9245816 0.796415 0.20358500000000002 0.758924 0.24107599999999996 0.5 0.5 0.5 0.5 0.5 0.5 0.5 0.5 0.5 0.5 0.5 0.5 0.5 0.5 0.5 0.5 0.5 0.5 0.5 0.5 0.5 0.5 0.5 0.5 0.5 0.5 0.5 0.5 0.5 0.5 0.5 0.5 0.5 0.5 0.5 0.5 0.5 0.5 0.5 0.5 0.5 0.5 0.5 0.5 0.5 0.5 0.5 0.5 0.5 0.5 0.5 0.5 0.5 0.5 0.5 0.5 0.5 0.5 0.5 0.5 0.5 0.5 0.5 0.5 0.5 0.5 0.5 0.5 0.5 0.5 0.5 0.5 0.5 0.5 0.5 0.5 0.5 0.5 0.5 0.5 0.5 0.5 0.5 0.5 0.5 0.5 0.5 0.5 0.5 0.5 0.5 0.5 0.5 0.5 0.5 0.5 0.5 0.5 0.5 0.5 0.5 0.5 0.5 0.5 0.5 0.5 0.5 0.5 0.5 0.5 0.5 0.5 0.5 0.5 0.5 0.5 0.5 0.5 0.5 0.5 0.5 0.5 0.5 0.5 0.5 0.5 0.5 0.5 0.5 0.5 0.5 0.5 0.5 0.5 0.5 0.5 0.5 0.5 0.5 0.5 0.5 0.5 0.5 0.5 0.5 0.5 0.5 0.5 0.5 0.5 0.5 0.5 0.5 0.5 0.5 0.5 0.5 0.5 0.5 0.5 0.5 0.5 0.5 0.5 0.5 0.5 0.5 0.5 0.5 0.5 0.5 0.5 0.5 0.5 0.5 0.5 0.5 0.5 0.5 0.5 0.5 0.5 0.5 0.5 0.5 0.5 0.5 0.5 0.5 0.5 0.5 0.5 0.5 0.5 0.5 0.5 0.5 0.5 0.5 0.5 0.5 0.5 0.5 0.5 0.5 0.5 0.5 0.5 0.5 0.5 0.5 0.5 0.5 0.5 0.5 0.5 0.5 0.5 0.5 0.5 0.5 0.5 0.5 0.5 0.5 0.5 0.5 0.5 0.5 0.5 0.5 0.5 0.5 0.5 0.5 0.5 0.5 0.5 0.5 0.5 0.5 0.5 0.5 0.5 0.5 0.5 0.5 0.5 0.5 0.5 0.5 0.5 0.5 0.5 0.5 0.5 0.5 0.5 0.5 0.5 0.5 0.5 0.5 0.5 0.341802 0.6581980000000001 0.750421 0.249579 0.159382 0.840618 0.434648 0.5653520000000001 0.5 0.5 0.5 0.5 0.5 0.5 0.5 0.5 0.5 0.5 0.5 0.5 0.5 0.5 0.5 0.5 0.5 0.5 0.5 0.5 0.5 0.5 0.5 0.5 0.5 0.5 0.5 0.5 0.5 0.5 0.5 0.5 0.5 0.5 0.5 0.5 0.5 0.5 0.5 0.5 0.0741888 0.9258112000000001 0.958066 0.04193400000000003 0.394138 0.605862 0.860411 0.13958899999999996 0.5 0.5 0.5 0.5 0.5 0.5 0.5 0.5 0.5 0.5 0.5 0.5 0.5 0.5 0.5 0.5 0.5 0.5 0.5 0.5 0.5 0.5 0.5 0.5 0.5 0.5 0.5 0.5 0.5 0.5 0.5 0.5 0.5 0.5 0.5 0.5 0.5 0.5 0.5 0.5 0.5 0.5 0.5 0.5 0.5 0.5 0.5 0.5 0.5 0.5 0.5 0.5 0.5 0.5 0.5 0.5 0.5 0.5 0.5 0.5 0.5 0.5 0.5 0.5 0.5 0.5 0.5 0.5 0.5 0.5 0.5 0.5 0.5 0.5 0.5 0.5 0.5 0.5 0.5 0.5 0.5 0.5 0.5 0.5 0.5 0.5 0.5 0.5 0.5 0.5 0.5 0.5 0.5 0.5 0.5 0.5 0.5 0.5 0.5 0.5 0.5 0.5 0.5 0.5 0.5 0.5 0.5 0.5 0.070582 0.929418 0.419139 0.5808610000000001 0.550815 0.44918499999999995 0.963559 0.036440999999999946 0.5 0.5 0.5 0.5 0.5 0.5 0.5 0.5 0.5 0.5 0.5 0.5 0.5 0.5 0.5 0.5 0.5 0.5 0.5 0.5 0.5 0.5 0.5 0.5 0.5 0.5 0.5 0.5 0.5 0.5 0.5 0.5 0.5 0.5 0.5 0.5 0.5 0.5 0.5 0.5 0.5 0.5 0.5 0.5 0.897707 0.10229299999999997 0.580066 0.41993400000000003 0.165809 0.834191 0.0738169 0.9261831 0.5 0.5 0.5 0.5 0.5 0.5 0.5 0.5 0.5 0.5 0.5 0.5 0.5 0.5 0.5 0.5 0.5 0.5 0.5 0.5 0.5 0.5 0.5 0.5 0.5 0.5 0.5 0.5 0.5 0.5 0.5 0.5 0.5 0.5 0.5 0.5 0.5 0.5 0.5 0.5 0.5 0.5 0.5 0.5 0.5 0.5 0.5 0.5 0.5 0.5 0.5 0.5 0.5 0.5 0.5 0.5 0.5 0.5 0.5 0.5 0.5 0.5 0.5 0.5 0.5 0.5 0.5 0.5 0.5 0.5 0.5 0.5 0.875489 0.12451100000000004 0.209075 0.790925 0.153871 0.846129 0.675977 0.32402299999999995 0.5 0.5 0.5 0.5 0.5 0.5 0.5 0.5 0.5 0.5 0.5 0.5 0.5 0.5 0.5 0.5 0.811282 0.18871800000000005 0.165773 0.834227 0.391128 0.6088720000000001 0.734737 0.265263 0.778797 0.22120300000000004 0.752332 0.247668 0.952074 0.047926000000000024 0.986078 0.01392199999999999 0.00272906 0.99727094 0.73798 0.26202000000000003 0.5 0.5 0.5 0.5 0.5 0.5 0.5 0.5 0.5 0.5 0.5 0.5 0.5 0.5 0.5 0.5 0.5 0.5 0.5 0.5 0.5 0.5 0.5 0.5 0.5 0.5 0.5 0.5 0.5 0.5 0.5 0.5 0.5 0.5 0.5 0.5 0.5 0.5 0.5 0.5 0.5 0.5 0.5 0.5 0.5 0.5 0.5 0.5 0.338667 0.661333 0.49651 0.50349 0.683374 0.31662599999999996 0.885641 0.11435899999999999 0.5 0.5 0.5 0.5 0.5 0.5 0.5 0.5 0.5 0.5 0.5 0.5 0.5 0.5 0.5 0.5 0.5 0.5 0.5 0.5 0.5 0.5 0.5 0.5 0.5 0.5 0.5 0.5 0.5 0.5 0.5 0.5 0.5 0.5 0.5 0.5 0.5 0.5 0.5 0.5 0.5 0.5 0.5 0.5 0.5 0.5 0.5 0.5 0.5 0.5 0.5 0.5 0.5 0.5 0.5 0.5 0.5 0.5 0.5 0.5 0.245783 0.754217 0.636487 0.363513 0.443892 0.556108 0.88999 0.11001000000000005 0.5 0.5 0.5 0.5 0.5 0.5 0.5 0.5 0.5 0.5 0.5 0.5 0.5 0.5 0.5 0.5 0.5 0.5 0.5 0.5 0.5 0.5 0.5 0.5 0.5 0.5 0.5 0.5 0.5 0.5 0.5 0.5 0.5 0.5 0.5 0.5 0.5 0.5 0.5 0.5 0.5 0.5 0.5 0.5 0.5 0.5 0.5 0.5 0.5 0.5 0.5 0.5 0.5 0.5 0.5 0.5 0.5 0.5 0.5 0.5 0.5 0.5 0.5 0.5 0.5 0.5 0.5 0.5 0.5 0.5 0.5 0.5 0.5 0.5 0.5 0.5 0.5 0.5 0.5 0.5 0.5 0.5 0.5 0.5 0.5 0.5 0.5 0.5 0.5 0.5 0.5 0.5 0.5 0.5 0.5 0.5 0.5 0.5 0.5 0.5 0.5 0.5 0.5 0.5 0.5 0.5 0.5 0.5 0.5 0.5 0.5 0.5 0.5 0.5 0.5 0.5 0.5 0.5 0.5 0.5 0.5 0.5 0.5 0.5 0.5 0.5 0.5 0.5 0.5 0.5 0.5 0.5 0.5 0.5 0.5 0.5 0.5 0.5 0.5 0.5 0.5 0.5 0.5 0.5 0.5 0.5 0.5 0.5 0.5 0.5 0.5 0.5 0.5 0.5 0.5 0.5 0.5 0.5 0.5 0.5 0.5 0.5 0.5 0.5 0.5 0.5 0.5 0.5 0.5 0.5 0.5 0.5 0.5 0.5 0.5 0.5 0.5 0.5 0.5 0.5 0.5 0.5 0.5 0.5 0.5 0.5 0.5 0.5 0.5 0.5 0.5 0.5 0.5 0.5 0.5 0.5 0.5 0.5 0.5 0.5 0.5 0.5 0.5 0.5 0.5 0.5 0.5 0.5 0.5 0.5 0.5 0.5 0.45882 0.54118 0.247236 0.752764 0.365652 0.634348 0.395132 0.604868 0.535601 0.464399 0.00156143 0.99843857 0.913528 0.086472 0.989321 0.010678999999999994 0.5 0.5 0.5 0.5 0.5 0.5 0.5 0.5 0.5 0.5 0.5 0.5 0.553953 0.44604699999999997 0.12622 0.87378 0.885096 0.114904 0.209201 0.790799 0.5 0.5 0.5 0.5 0.5 0.5 0.5 0.5 0.5 0.5 0.5 0.5 0.5 0.5 0.5 0.5 0.5 0.5 0.5 0.5 0.5 0.5 0.5 0.5 0.5 0.5 0.5 0.5 0.5 0.5 0.5 0.5 0.5 0.5 0.5 0.5 0.5 0.5 0.5 0.5 0.5 0.5 0.5 0.5 0.5 0.5 0.5 0.5 0.5 0.5 0.5 0.5 0.5 0.5 0.5 0.5 0.5 0.5 0.5 0.5 0.5 0.5 0.5 0.5 0.5 0.5 0.5 0.5 0.5 0.5 0.5 0.5 0.5 0.5 0.5 0.5 0.5 0.5 0.5 0.5 0.5 0.5 0.5 0.5 0.5 0.5 0.5 0.5 0.5 0.5 0.5 0.5 0.5 0.5 0.5 0.5 0.5 0.5 0.5 0.5 0.5 0.5 0.5 0.5 0.5 0.5 0.5 0.5 0.5 0.5 0.5 0.5 0.5 0.5 0.5 0.5 0.5 0.5 0.5 0.5 0.5 0.5 0.5 0.5 0.5 0.5 0.5 0.5 0.5 0.5 0.5 0.5 0.5 0.5 0.5 0.5 0.5 0.5 0.5 0.5 0.740316 0.259684 0.684719 0.31528100000000003 0.661092 0.338908 0.933374 0.06662599999999996 0.5 0.5 0.5 0.5 0.5 0.5 0.5 0.5 0.5 0.5 0.5 0.5 0.5 0.5 0.5 0.5 0.5 0.5 0.5 0.5 0.5 0.5 0.5 0.5 0.234937 0.765063 0.46968 0.53032 0.715099 0.28490099999999996 0.908194 0.09180600000000005 0.427806 0.572194 0.810055 0.18994500000000003 0.481449 0.518551 0.384633 0.615367 0.5 0.5 0.5 0.5 0.5 0.5 0.5 0.5 0.5 0.5 0.5 0.5 0.5 0.5 0.5 0.5 0.5 0.5 0.5 0.5 0.5 0.5 0.5 0.5 0.706623 0.293377 0.51282 0.48717999999999995 0.229887 0.770113 0.795812 0.20418800000000004 0.5 0.5 0.5 0.5 0.5 0.5 0.5 0.5 0.567065 0.43293499999999996 0.289136 0.7108639999999999 0.5 0.5 0.5 0.5 0.5 0.5 0.5 0.5 0.5 0.5 0.5 0.5 0.5 0.5 0.5 0.5 0.5 0.5 0.5 0.5 0.5 0.5 0.5 0.5 0.5 0.5 0.5 0.5 0.5 0.5 0.5 0.5 0.5 0.5 0.5 0.5 0.5 0.5 0.5 0.5 0.5 0.5 0.5 0.5 0.5 0.5 0.5 0.5 0.402394 0.5976060000000001 0.431739 0.568261 0.386743 0.6132569999999999 0.201112 0.798888 0.5 0.5 0.5 0.5 0.5 0.5 0.5 0.5 0.5 0.5 0.5 0.5 0.5 0.5 0.5 0.5 0.5 0.5 0.5 0.5 0.5 0.5 0.5 0.5 0.5 0.5 0.5 0.5 0.5 0.5 0.5 0.5 0.5 0.5 0.5 0.5 0.5 0.5 0.5 0.5 0.5 0.5 0.5 0.5 0.5 0.5 0.5 0.5 0.5 0.5 0.5 0.5 0.5 0.5 0.5 0.5 0.5 0.5 0.5 0.5 0.5 0.5 0.5 0.5 0.5 0.5 0.5 0.5 0.5 0.5 0.5 0.5 0.5 0.5 0.5 0.5 0.5 0.5 0.5 0.5 0.5 0.5 0.5 0.5 0.5 0.5 0.5 0.5 0.5 0.5 0.5 0.5 0.887694 0.11230600000000002 0.394363 0.605637 0.607555 0.39244500000000004 0.364243 0.635757 0.5 0.5 0.5 0.5 0.5 0.5 0.5 0.5 0.5 0.5 0.5 0.5 0.5 0.5 0.5 0.5 0.5 0.5 0.5 0.5 0.5 0.5 0.5 0.5 0.5 0.5 0.5 0.5 0.5 0.5 0.5 0.5 0.5 0.5 0.5 0.5 0.5 0.5 0.5 0.5 0.5 0.5 0.5 0.5 0.5 0.5 0.5 0.5 0.5 0.5 0.5 0.5 0.5 0.5 0.5 0.5 0.5 0.5 0.5 0.5 0.5 0.5 0.5 0.5 0.5 0.5 0.5 0.5 0.5 0.5 0.5 0.5 0.5 0.5 0.5 0.5 0.5 0.5 0.5 0.5 0.5 0.5 0.5 0.5 0.5 0.5 0.5 0.5
-1 2 0
1 -2 0
-2 -3 0
2 3 0
-3 -4 0
3 4 0
-4 5 0
4 -5 0
-5 6 0
5 -6 0
-6 7 0
6 -7 0
-7 8 0
7 -8 0
-8 -9 0
8 9 0
-9 -10 0
9 10 0
-10 11 0
10 -11 0
-11 -12 0
11 12 0
-12 -13 0
12 13 0
-13 -281 14 0
-13 281 -14 0
13 -282 14 0
13 282 -14 0
-14 -15 0
14 15 0
-15 -16 0
15 16 0
-1 -17 0
1 17 0
-17 -2 -18 0
-17 2 -18 0
17 -2 18 0
17 2 -18 0
-18 -3 19 0
-18 3 19 0
18 -3 -19 0
18 3 -19 0
-19 -4 20 0
-19 4 20 0
19 -4 20 0
19 4 -20 0
-20 -5 -21 0
-20 5 21 0
20 -5 21 0
20 5 -21 0
-21 -6 22 0
-21 6 -22 0
21 -6 -22 0
21 6 22 0
-22 -7 -23 0
-22 7 -23 0
22 -7 23 0
22 7 -23 0
-23 -8 24 0
-23 8 -24 0
23 -8 -24 0
23 8 -24 0
-24 -9 25 0
-24 9 25 0
24 -9 25 0
24 9 -25 0
-25 -10 -26 0
-25 10 26 0
25 -10 26 0
25 10 26 0
-26 -11 -325 27 0
-26 -11 325 -27 0
-26 11 -326 27 0
-26 11 326 -27 0
26 -11 -327 27 0
26 -11 327 -27 0
26 11 -328 27 0
26 11 328 -27 0
-27 -12 -28 0
-27 12 -28 0
27 -12 28 0
27 12 -28 0
-28 -13 29 0
-28 13 29 0
28 -13 -29 0
28 13 29 0
-29 -14 30 0
-29 14 -30 0
29 -14 -30 0
29 14 -30 0
-30 -15 -31 0
-30 15 -31 0
30 -15 31 0
30 15 -31 0
-31 -16 -32 0
-31 16 -32 0
31 -16 -32 0
31 16 32 0
-17 -349 33 0
-17 349 -33 0
17 -350 33 0
17 350 -33 0
-33 -18 34 0
-33 18 34 0
33 -18 -34 0
33 18 -34 0
-34 -19 -35 0
-34 19 35 0
34 -19 -35 0
34 19 35 0
-35 -20 36 0
-35 20 36 0
35 -20 -36 0
35 20 36 0
-36 -21 37 0
-36 21 37 0
36 -21 37 0
36 21 -37 0
-37 -22 38 0
-37 22 -38 0
37 -22 38 0
37 22 38 0
-38 -23 -371 39 0
-38 -23 371 -39 0
-38 23 -372 39 0
-38 23 372 -39 0
38 -23 -373 39 0
38 -23 373 -39 0
38 23 -374 39 0
38 23 374 -39 0
-39 -24 -40 0
-39 24 40 0
39 -24 -40 0
39 24 -40 0
-40 -25 -41 0
-40 25 41 0
40 -25 -41 0
40 25 -41 0
-41 -26 42 0
-41 26 42 0
41 -26 -42 0
41 26 -42 0
-42 -27 43 0
-42 27 -43 0
42 -27 -43 0
42 27 -43 0
-43 -28 -44 0
-43 28 44 0
43 -28 -44 0
43 28 44 0
-44 -29 45 0
-44 29 45 0
44 -29 -45 0
44 29 45 0
-45 -30 -46 0
-45 30 46 0
45 -30 46 0
45 30 46 0
-46 -31 47 0
-46 31 47 0
46 -31 -47 0
46 31 47 0
-47 -32 -48 0
-47 32 48 0
47 -32 48 0
47 32 -48 0
-33 -49 0
33 49 0
-49 -34 50 0
-49 34 -50 0
49 -34 50 0
49 34 50 0
-50 -35 -51 0
-50 35 51 0
50 -35 -51 0
50 35 51 0
-51 -36 -52 0
-51 36 52 0
51 -36 52 0
51 36 52 0
-52 -37 53 0
-52 37 53 0
52 -37 -53 0
52 37 -53 0
-53 -38 54 0
-53 38 -54 0
53 -38 -54 0
53 38 54 0
-54 -39 55 0
-54 39 55 0
54 -39 -55 0
54 39 55 0
-55 -40 -56 0
-55 40 56 0
55 -40 56 0
55 40 56 0
-56 -41 57 0
-56 41 -57 0
56 -41 57 0
56 41 57 0
-57 -42 58 0
-57 42 -58 0
57 -42 58 0
57 42 -58 0
-58 -43 -59 0
-58 43 59 0
58 -43 59 0
58 43 59 0
-59 -44 -60 0
-59 44 60 0
59 -44 -60 0
59 44 -60 0
-60 -45 61 0
-60 45 -61 0
60 -45 61 0
60 45 -61 0
-61 -46 62 0
-61 46 62 0
61 -46 62 0
61 46 -62 0
-62 -47 -63 0
-62 47 -63 0
62 -47 -63 0
62 47 63 0
-63 -48 64 0
-63 48 -64 0
63 -48 -64 0
63 48 64 0
-49 -65 0
49 65 0
-65 -50 -66 0
-65 50 66 0
65 -50 66 0
65 50 -66 0
-66 -51 67 0
-66 51 -67 0
66 -51 -67 0
66 51 -67 0
-67 -52 -483 68 0
-67 -52 483 -68 0
-67 52 -484 68 0
-67 52 484 -68 0
67 -52 -485 68 0
67 -52 485 -68 0
67 52 -486 68 0
67 52 486 -68 0
-68 -53 -487 69 0
-68 -53 487 -69 0
-68 53 -488 69 0
-68 53 488 -69 0
68 -53 -489 69 0
68 -53 489 -69 0
68 53 -490 69 0
68 53 490 -69 0
-69 -54 -70 0
-69 54 -70 0
69 -54 70 0
69 54 -70 0
-70 -55 71 0
-70 55 -71 0
70 -55 71 0
70 55 -71 0
-71 -56 -72 0
-71 56 -72 0
71 -56 -72 0
71 56 72 0
-72 -57 73 0
-72 57 -73 0
72 -57 -73 0
72 57 -73 0
-73 -58 74 0
-73 58 74 0
73 -58 -74 0
73 58 74 0
-74 -59 -75 0
-74 59 75 0
74 -59 -75 0
74 59 -75 0
-75 -60 -76 0
-75 60 76 0
75 -60 -76 0
75 60 -76 0
-76 -61 -77 0
-76 61 77 0
76 -61 77 0
76 61 -77 0
-77 -62 78 0
-77 62 -78 0
77 -62 -78 0
77 62 -78 0
-78 -63 -79 0
-78 63 -79 0
78 -63 -79 0
78 63 79 0
-79 -64 80 0
-79 64 -80 0
79 -64 -80 0
79 64 80 0
-65 -81 0
65 81 0
-81 -66 -82 0
-81 66 -82 0
81 -66 82 0
81 66 82 0
-82 -67 -83 0
-82 67 -83 0
82 -67 83 0
82 67 83 0
-83 -68 -84 0
-83 68 -84 0
83 -68 84 0
83 68 -84 0
-84 -69 -85 0
-84 69 -85 0
84 -69 -85 0
84 69 85 0
-85 -70 -86 0
-85 70 -86 0
85 -70 86 0
85 70 86 0
-86 -71 87 0
-86 71 -87 0
86 -71 87 0
86 71 -87 0
-87 -72 -88 0
-87 72 -88 0
87 -72 -88 0
87 72 88 0
-88 -73 89 0
-88 73 89 0
88 -73 -89 0
88 73 -89 0
-89 -74 -90 0
-89 74 -90 0
89 -74 90 0
89 74 -90 0
-90 -75 91 0
-90 75 -91 0
90 -75 91 0
90 75 91 0
-91 -76 -92 0
-91 76 92 0
91 -76 92 0
91 76 92 0
-92 -77 93 0
-92 77 93 0
92 -77 -93 0
92 77 93 0
-93 -78 94 0
-93 78 94 0
93 -78 94 0
93 78 -94 0
-94 -79 -95 0
-94 79 95 0
94 -79 -95 0
94 79 -95 0
-95 -80 96 0
-95 80 -96 0
95 -80 96 0
95 80 96 0
-81 -97 0
81 97 0
-97 -82 98 0
-97 82 98 0
97 -82 -98 0
97 82 -98 0
-98 -83 99 0
-98 83 -99 0
98 -83 -99 0
98 83 -99 0
-99 -84 100 0
-99 84 -100 0
99 -84 -100 0
99 84 -100 0
-100 -85 101 0
-100 85 -101 0
100 -85 -101 0
100 85 -101 0
-101 -86 102 0
-101 86 -102 0
101 -86 102 0
101 86 -102 0
-102 -87 103 0
-102 87 103 0
102 -87 -103 0
102 87 -103 0
-103 -88 -623 104 0
-103 -88 623 -104 0
-103 88 -624 104 0
-103 88 624 -104 0
103 -88 -625 104 0
103 -88 625 -104 0
103 88 -626 104 0
103 88 626 -104 0
-104 -89 105 0
-104 89 -105 0
104 -89 105 0
104 89 -105 0
-105 -90 106 0
-105 90 106 0
105 -90 -106 0
105 90 106 0
-106 -91 107 0
-106 91 -107 0
106 -91 107 0
106 91 107 0
-107 -92 -108 0
-107 92 108 0
107 -92 108 0
107 92 -108 0
-108 -93 109 0
-108 93 -109 0
108 -93 109 0
108 93 109 0
-109 -94 -647 110 0
-109 -94 647 -110 0
-109 94 -648 110 0
-109 94 648 -110 0
109 -94 -649 110 0
109 -94 649 -110 0
109 94 -650 110 0
109 94 650 -110 0
-110 -95 111 0
-110 95 111 0
110 -95 111 0
110 95 -111 0
-111 -96 -112 0
-111 96 112 0
111 -96 112 0
111 96 -112 0
-97 -113 0
97 113 0
-113 -98 -114 0
-113 98 114 0
113 -98 114 0
113 98 114 0
-114 -99 115 0
-114 99 115 0
114 -99 115 0
114 99 -115 0
-115 -100 -116 0
-115 100 116 0
115 -100 -116 0
115 100 -116 0
-116 -101 117 0
-116 101 -117 0
116 -101 -117 0
116 101 -117 0
-117 -102 118 0
-117 102 -118 0
117 -102 118 0
117 102 118 0
-118 -103 -119 0
-118 103 -119 0
118 -103 119 0
118 103 119 0
-119 -104 -120 0
-119 104 -120 0
119 -104 120 0
119 104 120 0
-120 -105 -121 0
-120 105 -121 0
120 -105 -121 0
120 105 121 0
-121 -106 122 0
-121 106 -122 0
121 -106 -122 0
121 106 -122 0
-122 -107 123 0
-122 107 -123 0
122 -107 123 0
122 107 123 0
-123 -108 -124 0
-123 108 -124 0
123 -108 -124 0
123 108 124 0
-124 -109 -705 125 0
-124 -109 705 -125 0
-124 109 -706 125 0
-124 109 706 -125 0
124 -109 -707 125 0
124 -109 707 -125 0
124 109 -708 125 0
124 109 708 -125 0
-125 -110 -126 0
-125 110 -126 0
125 -110 126 0
125 110 126 0
-126 -111 127 0
-126 111 127 0
126 -111 127 0
126 111 -127 0
-127 -112 128 0
-127 112 128 0
127 -112 128 0
127 112 -128 0
-113 -129 0
113 129 0
-129 -114 -130 0
-129 114 -130 0
129 -114 130 0
129 114 -130 0
-130 -115 -131 0
-130 115 131 0
130 -115 131 0
130 115 -131 0
-131 -116 -731 132 0
-131 -116 731 -132 0
-131 116 -732 132 0
-131 116 732 -132 0
131 -116 -733 132 0
131 -116 733 -132 0
131 116 -734 132 0
131 116 734 -132 0
-132 -117 133 0
-132 117 133 0
132 -117 133 0
132 117 -133 0
-133 -118 -134 0
-133 118 134 0
133 -118 -134 0
133 118 -134 0
-134 -119 -135 0
-134 119 -135 0
134 -119 135 0
134 119 -135 0
-135 -120 -136 0
-135 120 -136 0
135 -120 136 0
135 120 -136 0
-136 -121 137 0
-136 121 -137 0
136 -121 -137 0
136 121 -137 0
-137 -122 -138 0
-137 122 138 0
137 -122 -138 0
137 122 -138 0
-138 -123 139 0
-138 123 139 0
138 -123 139 0
138 123 -139 0
-139 -124 140 0
-139 124 -140 0
139 -124 140 0
139 124 140 0
-140 -125 141 0
-140 125 141 0
140 -125 141 0
140 125 -141 0
-141 -126 -771 142 0
-141 -126 771 -142 0
-141 126 -772 142 0
-141 126 772 -142 0
141 -126 -773 142 0
141 -126 773 -142 0
141 126 -774 142 0
141 126 774 -142 0
-142 -127 -143 0
-142 127 -143 0
142 -127 -143 0
142 127 143 0
-143 -128 144 0
-143 128 144 0
143 -128 -144 0
143 128 144 0
-129 -783 145 0
-129 783 -145 0
129 -784 145 0
129 784 -145 0
-145 -130 -785 146 0
-145 -130 785 -146 0
-145 130 -786 146 0
-145 130 786 -146 0
145 -130 -787 146 0
145 -130 787 -146 0
145 130 -788 146 0
145 130 788 -146 0
-146 -131 -789 147 0
-146 -131 789 -147 0
-146 131 -790 147 0
-146 131 790 -147 0
146 -131 -791 147 0
146 -131 791 -147 0
146 131 -792 147 0
146 131 792 -147 0
-147 -132 148 0
-147 132 -148 0
147 -132 148 0
147 132 148 0
-148 -133 -149 0
-148 133 149 0
148 -133 -149 0
148 133 -149 0
-149 -134 -150 0
-149 134 150 0
149 -134 150 0
149 134 -150 0
-150 -135 151 0
-150 135 151 0
150 -135 -151 0
150 135 -151 0
-151 -136 152 0
-151 136 -152 0
151 -136 -152 0
151 136 152 0
-152 -137 153 0
-152 137 -153 0
152 -137 153 0
152 137 -153 0
-153 -138 -817 154 0
-153 -138 817 -154 0
-153 138 -818 154 0
-153 138 818 -154 0
153 -138 -819 154 0
153 -138 819 -154 0
153 138 -820 154 0
153 138 820 -154 0
-154 -139 -155 0
-154 139 -155 0
154 -139 -155 0
154 139 155 0
-155 -140 156 0
-155 140 -156 0
155 -140 -156 0
155 140 156 0
-156 -141 157 0
-156 141 -157 0
156 -141 157 0
156 141 157 0
-157 -142 -158 0
-157 142 -158 0
157 -142 -158 0
157 142 158 0
-158 -143 -159 0
-158 143 159 0
158 -143 159 0
158 143 -159 0
-159 -144 -160 0
-159 144 -160 0
159 -144 160 0
159 144 -160 0
-145 161 0
145 -161 0
-161 -146 162 0
-161 146 -162 0
161 -146 -162 0
161 146 -162 0
-162 -147 -851 163 0
-162 -147 851 -163 0
-162 147 -852 163 0
-162 147 852 -163 0
162 -147 -853 163 0
162 -147 853 -163 0
162 147 -854 163 0
162 147 854 -163 0
-163 -148 -164 0
-163 148 164 0
163 -148 -164 0
163 148 164 0
-164 -149 -165 0
-164 149 165 0
164 -149 165 0
164 149 -165 0
-165 -150 166 0
-165 150 166 0
165 -150 -166 0
165 150 166 0
-166 -151 -167 0
-166 151 -167 0
166 -151 167 0
166 151 167 0
-167 -152 -168 0
-167 152 -168 0
167 -152 168 0
167 152 -168 0
-168 -153 -169 0
-168 153 169 0
168 -153 -169 0
168 153 -169 0
-169 -154 170 0
-169 154 170 0
169 -154 -170 0
169 154 170 0
-170 -155 -171 0
-170 155 -171 0
170 -155 171 0
170 155 -171 0
-171 -156 172 0
-171 156 172 0
171 -156 -172 0
171 156 172 0
-172 -157 173 0
-172 157 -173 0
172 -157 173 0
172 157 -173 0
-173 -158 -174 0
-173 158 -174 0
173 -158 174 0
173 158 -174 0
-174 -159 175 0
-174 159 175 0
174 -159 -175 0
174 159 -175 0
-175 -160 176 0
-175 160 176 0
175 -160 176 0
175 160 -176 0
-161 177 0
161 -177 0
-177 -162 -178 0
-177 162 178 0
177 -162 -178 0
177 162 178 0
-178 -163 179 0
-178 163 -179 0
178 -163 -179 0
178 163 179 0
-179 -164 -180 0
-179 164 180 0
179 -164 180 0
179 164 -180 0
-180 -165 181 0
-180 165 181 0
180 -165 -181 0
180 165 181 0
-181 -166 182 0
-181 166 -182 0
181 -166 182 0
181 166 -182 0
-182 -167 -183 0
-182 167 183 0
182 -167 -183 0
182 167 -183 0
-183 -168 184 0
-183 168 184 0
183 -168 -184 0
183 168 -184 0
-184 -169 185 0
-184 169 185 0
184 -169 -185 0
184 169 185 0
-185 -170 186 0
-185 170 -186 0
185 -170 -186 0
185 170 186 0
-186 -171 187 0
-186 171 -187 0
186 -171 -187 0
186 171 187 0
-187 -172 188 0
-187 172 -188 0
187 -172 188 0
187 172 188 0
-188 -173 -189 0
-188 173 189 0
188 -173 -189 0
188 173 189 0
-189 -174 190 0
-189 174 -190 0
189 -174 190 0
189 174 190 0
-190 -175 -961 191 0
-190 -175 961 -191 0
-190 175 -962 191 0
-190 175 962 -191 0
190 -175 -963 191 0
190 -175 963 -191 0
190 175 -964 191 0
190 175 964 -191 0
-191 -176 -965 192 0
-191 -176 965 -192 0
-191 176 -966 192 0
-191 176 966 -192 0
191 -176 -967 192 0
191 -176 967 -192 0
191 176 -968 192 0
191 176 968 -192 0
-177 193 0
177 -193 0
-193 -178 194 0
-193 178 194 0
193 -178 -194 0
193 178 -194 0
-194 -179 -975 195 0
-194 -179 975 -195 0
-194 179 -976 195 0
-194 179 976 -195 0
194 -179 -977 195 0
194 -179 977 -195 0
194 179 -978 195 0
194 179 978 -195 0
-195 -180 196 0
-195 180 -196 0
195 -180 -196 0
195 180 196 0
-196 -181 -197 0
-196 181 -197 0
196 -181 197 0
196 181 197 0
-197 -182 198 0
-197 182 -198 0
197 -182 -198 0
197 182 -198 0
-198 -183 -199 0
-198 183 -199 0
198 -183 -199 0
198 183 199 0
-199 -184 -200 0
-199 184 200 0
199 -184 -200 0
199 184 -200 0
-200 -185 201 0
-200 185 201 0
200 -185 201 0
200 185 -201 0
-201 -186 202 0
-201 186 202 0
201 -186 -202 0
201 186 202 0
-202 -187 -203 0
-202 187 -203 0
202 -187 -203 0
202 187 203 0
-203 -188 204 0
-203 188 204 0
203 -188 -204 0
203 188 204 0
-204 -189 -205 0
-204 189 -205 0
204 -189 205 0
204 189 205 0
-205 -190 206 0
-205 190 206 0
205 -190 -206 0
205 190 206 0
-206 -191 -207 0
-206 191 -207 0
206 -191 -207 0
206 191 207 0
-207 -192 208 0
-207 192 208 0
207 -192 -208 0
207 192 208 0
-193 209 0
193 -209 0
-209 -194 210 0
-209 194 -210 0
209 -194 -210 0
209 194 -210 0
-210 -195 -211 0
-210 195 -211 0
210 -195 211 0
210 195 -211 0
-211 -196 212 0
-211 196 -212 0
211 -196 -212 0
211 196 -212 0
-212 -197 213 0
-212 197 213 0
212 -197 -213 0
212 197 213 0
-213 -198 -1049 214 0
-213 -198 1049 -214 0
-213 198 -1050 214 0
-213 198 1050 -214 0
213 -198 -1051 214 0
213 -198 1051 -214 0
213 198 -1052 214 0
213 198 1052 -214 0
-214 -199 215 0
-214 199 215 0
214 -199 -215 0
214 199 -215 0
-215 -200 -216 0
-215 200 216 0
215 -200 216 0
215 200 -216 0
-216 -201 217 0
-216 201 -217 0
216 -201 217 0
216 201 217 0
-217 -202 -1065 218 0
-217 -202 1065 -218 0
-217 202 -1066 218 0
-217 202 1066 -218 0
217 -202 -1067 218 0
217 -202 1067 -218 0
217 202 -1068 218 0
217 202 1068 -218 0
-218 -203 -1069 219 0
-218 -203 1069 -219 0
-218 203 -1070 219 0
-218 203 1070 -219 0
218 -203 -1071 219 0
218 -203 1071 -219 0
218 203 -1072 219 0
218 203 1072 -219 0
-219 -204 -220 0
-219 204 220 0
219 -204 -220 0
219 204 220 0
-220 -205 -221 0
-220 205 -221 0
220 -205 221 0
220 205 -221 0
-221 -206 -222 0
-221 206 -222 0
221 -206 -222 0
221 206 222 0
-222 -207 -1085 223 0
-222 -207 1085 -223 0
-222 207 -1086 223 0
-222 207 1086 -223 0
222 -207 -1087 223 0
222 -207 1087 -223 0
222 207 -1088 223 0
222 207 1088 -223 0
-223 -208 -224 0
-223 208 224 0
223 -208 224 0
223 208 -224 0
-209 -1093 225 0
-209 1093 -225 0
209 -1094 225 0
209 1094 -225 0
-225 -210 -226 0
-225 210 226 0
225 -210 -226 0
225 210 -226 0
-226 -211 227 0
-226 211 227 0
226 -211 -227 0
226 211 227 0
-227 -212 228 0
-227 212 228 0
227 -212 228 0
227 212 -228 0
-228 -213 -229 0
-228 213 229 0
228 -213 -229 0
228 213 229 0
-229 -214 -230 0
-229 214 -230 0
229 -214 230 0
229 214 -230 0
-230 -215 231 0
-230 215 -231 0
230 -215 -231 0
230 215 231 0
-231 -216 -1119 232 0
-231 -216 1119 -232 0
-231 216 -1120 232 0
-231 216 1120 -232 0
231 -216 -1121 232 0
231 -216 1121 -232 0
231 216 -1122 232 0
231 216 1122 -232 0
-232 -217 233 0
-232 217 -233 0
232 -217 233 0
232 217 233 0
-233 -218 -234 0
-233 218 -234 0
233 -218 234 0
233 218 234 0
-234 -219 -235 0
-234 219 235 0
234 -219 -235 0
234 219 -235 0
-235 -220 -236 0
-235 220 236 0
235 -220 -236 0
235 220 -236 0
-236 -221 237 0
-236 221 -237 0
236 -221 -237 0
236 221 -237 0
-237 -222 -238 0
-237 222 238 0
237 -222 -238 0
237 222 -238 0
-238 -223 -239 0
-238 223 239 0
238 -223 239 0
238 223 239 0
-239 -224 -240 0
-239 224 -240 0
239 -224 240 0
239 224 240 0
-225 -241 0
225 241 0
-241 -226 242 0
-241 226 -242 0
241 -226 -242 0
241 226 242 0
-242 -227 243 0
-242 227 243 0
242 -227 -243 0
242 227 243 0
-243 -228 244 0
-243 228 -244 0
243 -228 -244 0
243 228 244 0
-244 -229 -1169 245 0
-244 -229 1169 -245 0
-244 229 -1170 245 0
-244 229 1170 -245 0
244 -229 -1171 245 0
244 -229 1171 -245 0
244 229 -1172 245 0
244 229 1172 -245 0
-245 -230 246 0
-245 230 -246 0
245 -230 246 0
245 230 246 0
-246 -231 -247 0
-246 231 247 0
246 -231 247 0
246 231 -247 0
-247 -232 -248 0
-247 232 -248 0
247 -232 -248 0
247 232 248 0
-248 -233 249 0
-248 233 -249 0
248 -233 249 0
248 233 -249 0
-249 -234 250 0
-249 234 -250 0
249 -234 -250 0
249 234 250 0
-250 -235 -251 0
-250 235 251 0
250 -235 251 0
250 235 251 0
-251 -236 252 0
-251 236 -252 0
251 -236 -252 0
251 236 -252 0
-252 -237 -253 0
-252 237 -253 0
252 -237 253 0
252 237 253 0
-253 -238 254 0
-253 238 -254 0
253 -238 -254 0
253 238 -254 0
-254 -239 255 0
-254 239 255 0
254 -239 -255 0
254 239 -255 0
-255 -240 -256 0
-255 240 256 0
255 -240 -256 0
255 240 256 0
256 0
