data/benchmarks/bayes/90-16-10-q.gr
p tw 1216 985
104 624
166 181
214 230
126 773
15 30
67 68
198 213
47 62
99 100
107 122
159 160
139 154
8 9
129 784
40 41
21 37
199 214
213 1052
251 252
48 63
100 101
80 95
132 133
124 705
140 155
38 373
172 187
17 350
41 42
73 74
232 247
133 134
14 15
173 188
225 226
162 853
22 37
74 75
106 107
109 707
114 129
166 167
15 16
39 373
47 48
147 791
226 227
206 221
55 70
103 623
107 108
23 374
88 104
69 490
147 162
199 200
219 1072
180 196
29 45
239 254
140 141
222 1086
121 137
141 771
88 625
232 233
213 229
81 82
62 78
240 255
154 817
223 1087
173 174
191 964
154 170
22 23
3 19
233 234
114 115
95 111
68 484
192 965
110 648
155 171
206 207
187 203
55 56
36 52
214 229
94 649
96 112
147 148
128 144
207 208
188 204
129 783
239 240
220 236
229 1171
21 36
69 85
195 975
129 145
161 177
232 1122
10 26
38 372
179 976
221 237
205 220
54 69
102 118
181 182
162 178
146 161
191 968
194 210
43 59
103 119
87 102
135 151
68 488
214 215
195 211
147 790
179 194
227 243
28 43
76 92
207 1088
88 103
136 152
120 135
69 489
168 184
21 22
219 1071
180 195
228 244
29 44
77 93
61 76
113 114
203 1072
176 966
222 1085
121 136
169 185
109 647
153 168
88 624
205 206
2 17
54 55
213 228
62 77
110 126
94 109
146 147
191 963
154 169
202 218
3 18
51 67
35 50
87 88
95 110
68 483
127 142
143 159
179 180
28 29
110 647
218 1065
9 25
187 202
235 251
36 51
88 89
68 83
94 648
120 121
103 626
128 143
180 181
160 175
29 30
61 62
42 58
220 235
69 84
121 122
101 116
153 154
153 819
134 150
2 3
27 325
131 791
213 214
232 1121
10 25
38 371
62 63
94 95
146 789
179 975
75 91
11 326
102 117
154 155
53 490
154 820
3 4
35 36
191 967
16 32
194 209
246 247
43 58
95 96
127 128
108 124
135 150
187 188
68 487
36 37
17 33
68 69
147 789
49 65
192 966
218 1069
227 242
76 91
138 817
109 125
207 1087
175 964
194 977
168 183
220 221
201 217
69 70
219 1070
50 66
101 102
82 98
52 484
161 162
203 1071
142 158
10 11
176 965
195 978
23 39
253 254
234 250
102 103
83 99
194 195
175 191
43 44
191 962
24 40
56 72
135 136
116 132
216 1122
176 192
227 228
208 224
76 77
9 24
132 732
57 73
168 169
149 165
30 46
209 225
42 57
90 106
153 818
134 149
150 166
182 198
131 790
31 47
109 650
146 788
217 1068
232 1120
75 90
11 325
123 139
53 489
183 199
215 231
16 31
64 80
190 961
13 282
33 349
124 140
108 123
156 172
9 10
5 21
216 232
218 1068
245 1171
97 113
109 124
125 706
157 173
175 963
194 976
189 205
42 43
229 1172
26 327
201 216
82 97
134 135
52 483
142 157
190 206
202 1065
163 854
222 238
27 328
23 38
75 76
234 249
146 792
231 1119
83 98
131 147
115 130
225 1094
175 190
198 1049
223 239
67 486
56 71
108 109
116 131
226 241
164 180
216 1121
49 50
208 223
132 731
57 72
109 110
167 182
89 104
142 772
138 820
149 164
201 202
197 213
50 51
30 45
82 83
63 79
90 105
142 143
200 215
23 24
4 20
182 197
234 235
131 789
83 84
141 156
146 787
115 116
217 1067
214 1052
123 138
175 176
233 248
24 25
56 57
37 53
215 230
64 79
116 117
13 281
174 189
244 1169
156 171
57 58
167 168
38 54
89 90
70 86
245 1170
149 150
207 222
130 146
30 31
125 705
175 962
11 27
147 854
189 204
241 242
90 91
26 326
148 163
71 87
200 201
182 183
163 179
31 32
141 142
12 28
44 60
116 732
222 237
123 124
181 196
104 120
145 786
215 216
196 212
122 137
174 175
45 61
67 485
104 623
156 157
126 772
190 964
137 153
5 6
18 34
216 1120
248 249
229 245
97 98
130 788
78 94
189 190
142 771
131 734
170 186
148 149
213 1051
19 35
63 78
17 349
111 127
222 223
203 219
4 19
52 68
202 1068
217 1066
162 852
144 160
122 123
109 706
214 1051
231 1122
236 252
37 52
198 1052
85 101
39 372
177 193
23 373
26 42
237 253
70 85
118 134
210 226
229 1170
11 26
63 64
147 853
124 708
151 167
4 5
223 1086
211 227
44 59
116 731
145 785
37 38
196 211
155 170
244 1172
126 771
185 201
96 111
18 33
70 71
229 244
130 131
188 203
11 12
213 1050
131 733
170 185
218 234
141 774
163 164
221 236
44 45
25 41
203 218
255 256
162 177
162 851
144 159
196 197
109 705
103 118
155 156
236 251
192 968
137 138
39 371
195 210
247 248
18 19
229 230
23 372
136 151
188 189
69 488
59 75
118 133
170 171
228 243
77 92
129 130
210 225
111 112
169 184
221 222
88 623
92 108
124 707
151 166
203 204
184 200
110 125
162 163
33 49
223 1085
202 217
254 255
125 141
51 66
103 104
84 100
236 237
217 233
85 86
143 158
195 196
66 82
14 282
177 178
235 250
158 174
136 137
94 647
7 23
117 133
103 625
118 119
228 229
99 115
77 78
58 74
210 211
191 207
131 732
169 170
40 56
222 1088
141 773
151 152
132 148
110 111
91 107
243 244
224 240
154 819
25 40
202 203
73 89
51 52
191 966
32 48
165 181
143 144
14 30
68 486
235 236
106 122
192 967
110 650
65 81
198 214
207 1086
23 371
47 63
6 22
69 487
219 1069
139 155
50 65
98 114
203 1070
80 96
195 977
39 55
38 374
172 188
179 978
25 26
191 961
24 39
72 88
84 99
17 18
176 191
14 281
68 490
218 1072
147 792
117 132
103 624
58 73
153 817
150 165
176 968
222 1087
232 1119
31 46
109 649
91 106
53 488
154 818
183 198
231 247
191 965
32 47
84 85
158 159
217 218
124 139
5 20
68 485
216 231
218 1067
117 118
250 251
207 1085
94 650
157 172
209 210
194 975
6 21
58 59
191 192
98 113
150 151
203 1069
195 976
190 205
242 243
113 129
39 54
27 327
91 92
163 853
146 791
179 977
205 221
131 146
183 184
11 328
54 70
225 1093
13 29
165 166
223 238
146 162
72 87
124 125
105 121
164 179
216 217
87 103
65 66
46 62
68 489
198 199
218 1071
179 195
157 158
28 44
6 7
138 154
138 819
139 140
197 212
249 250
120 136
98 99
230 246
79 95
190 191
61 77
39 40
52 486
171 187
20 36
176 967
172 173
109 648
131 132
146 786
153 169
2 18
112 128
223 224
53 487
94 110
72 73
204 220
53 69
231 246
164 165
35 51
145 161
127 143
38 53
86 102
218 1066
245 1169
132 734
209 1094
197 198
130 145
68 84
178 194
175 961
27 43
238 254
26 325
160 176
71 86
119 135
163 178
101 117
12 27
153 820
60 76
163 852
27 326
131 792
146 790
104 119
152 168
1 17
11 327
231 232
212 228
13 28
45 60
93 109
67 484
105 120
190 963
137 152
38 39
216 1119
46 61
130 787
78 93
126 142
218 1070
138 153
138 818
186 202
19 34
71 72
125 708
194 978
230 245
79 94
111 126
12 13
171 186
52 485
219 235
20 35
52 67
104 105
202 1067
217 1065
146 785
112 127
231 1121
13 14
214 1050
45 46
204 219
53 68
105 106
198 1051
85 100
104 626
193 209
46 47
26 41
78 79
237 252
86 101
138 139
132 733
209 1093
19 20
178 193
142 774
230 231
229 1169
27 42
79 80
147 852
238 253
119 134
171 172
20 21
52 53
211 226
60 75
163 851
152 167
145 784
204 205
53 54
34 50
212 227
93 108
145 146
67 483
190 962
244 1171
26 27
33 350
185 200
237 238
86 87
67 83
130 786
126 141
178 179
245 1172
159 175
27 28
213 1049
8 24
186 201
238 239
218 233
125 707
119 120
100 116
26 328
211 212
192 208
60 61
41 57
219 234
202 1066
152 153
116 734
133 149
1 2
212 213
231 1120
214 1049
244 245
145 788
115 131
93 94
225 241
74 90
198 1050
185 186
104 625
166 182
126 774
15 31
245 246
226 242
126 127
59 74
107 123
186 187
167 183
218 219
89 105
199 215
142 773
48 64
147 851
92 107
124 706
140 156
219 220
200 216
184 199
232 248
81 97
141 157
125 140
173 189
162 854
145 783
22 38
252 253
109 708
217 232
34 49
233 249
66 81
114 130
193 194
39 374
174 190
158 173
244 1170
206 222
7 22
59 60
55 71
67 82
130 785
99 114
147 163
159 174
207 223
191 206
8 23
131 731
239 255
40 55
92 93
141 772
100 115
148 164
88 626
132 147
184 185
33 34
192 207
240 256
224 239
41 56
73 88
125 126
223 1088
116 733
133 148
181 197
165 180
34 35
14 29
66 67
145 787
74 89
122 138
106 121
110 649
7 8
